NAME: temp
TYPE: TSP
COMMENT: Temporary file, don't worry about it.
DIMENSION: 10
EDGE_WEIGHT_TYPE: EUC_2D
NODE_COORD_SECTION
1 1048.0 998.0
2 395.0 1116.0
3 186.0 1089.0
4 1465.0 1812.0
5 1786.0 1085.0
6 1355.0 341.0
7 657.0 699.0
8 1276.0 1940.0
9 849.0 1218.0
10 992.0 269.0
EOF

